p cnf 12 58
-1 8 -2 0
1 9 -7 0
11 8 -3 0
7 3 -2 0
-11 -7 -8 0
6 -9 -10 0
-1 -8 2 0
-12 -2 3 0
1 9 10 0
-1 10 4 0
10 -4 -2 0
-5 3 -2 0
-2 -7 12 0
-8 7 -4 0
-4 6 12 0
5 10 6 0
12 3 2 0
-7 3 9 0
-11 12 -1 0
8 -2 -3 0
-2 -5 8 0
6 -4 -9 0
5 -8 -9 0
-8 9 2 0
10 8 -5 0
8 2 -10 0
-11 -4 5 0
-8 3 7 0
-8 -7 12 0
9 6 -5 0
-9 7 -1 0
-4 -10 6 0
3 4 -6 0
-4 -3 -12 0
5 8 -1 0
7 -11 -3 0
9 2 -11 0
10 -2 -7 0
-2 9 -6 0
4 2 -5 0
-7 2 -10 0
2 -10 9 0
-2 -8 -7 0
8 -10 12 0
-1 9 4 0
-2 4 12 0
11 -5 9 0
-2 8 -1 0
-6 -10 9 0
5 -1 -3 0
12 7 -4 0
-1 5 -2 0
-3 12 -4 0
-6 -7 -11 0
7 -5 -4 0
-1 -12 -2 0
-6 11 10 0
-7 -12 -6 0
